39
 1 312 8
 2 780 20
 3 312 8
 4 117 3
 5 234 6
 6 585 15
 7 507 13
 8 78 2
 9 429 11
 10 429 11
 11 741 19
 12 507 13
 13 234 6
 14 195 5
 15 117 3
 16 117 3
 17 741 19
 18 741 19
 19 546 14
 20 702 18
 21 351 9
 22 351 9
 23 273 7
 24 780 20
 25 429 11
 26 585 15
 27 312 8
 28 702 18
 29 351 9
 30 39 1
 31 195 5
 32 663 17
 33 156 4
 34 195 5
 35 390 10
 36 507 13
 37 390 10
 38 663 17
 39 741 19
390